NAME : data_9_2_tsptw.tsptw
TYPE : TSPTW
DIMENSION : 10
EDGE_WEIGHT_TYPE : EXPLICIT
EDGE_WEIGHT_FORMAT : FULL_MATRIX
EDGE_WEIGHT_SECTION
0 3051 3105 2924 2486 2448 3084 2594 2520 2418
2727 0 253 470 779 883 532 598 720 1031
2945 345 0 666 864 1020 313 734 856 1115
2781 289 332 0 833 938 493 652 774 1085
2220 857 868 564 0 197 724 290 217 363
2061 950 983 686 293 0 930 337 264 336
2732 610 298 579 732 889 0 603 725 984
2180 614 646 349 307 337 684 0 173 537
2254 687 719 422 250 410 666 73 0 582
2289 1065 1087 782 344 334 942 451 378 0
TIME_WINDOW_SECTION
1 0 600000
2 3600 14400
3 3600 14400
4 7200 12600
5 10800 21600
6 10800 16200
7 7200 18000
8 12600 18000
9 7200 18000
10 10800 16200
DEPOT_SECTION
1
-1
EOF